job_count = 10 ;
duration = [|23, 6, 4, 3|34, 12, 7, 7|30, 24, 12, 5|21, 12, 6, 7|13, 14, 15, 2|9, 3, 12, 7|24, 16, 12, 2|15, 16, 17, 5|12, 24, 15, 9|31, 26, 7, 3|] ;
machine_count = 4 ;
cost = [|14, 21, 36, 44|18, 20, 56, 56|18, 31, 40, 44|15, 34, 36, 50|15, 20, 55, 66|11, 24, 44, 50|10, 23, 40, 45|11, 35, 55, 52|15, 33, 49, 46|18, 36, 35, 45|] ;
deadline = [21, 21, 21, 21, 21, 21, 21, 21, 21, 21] ;
release = [0, 0, 0, 0, 0, 0, 0, 0, 0, 0] ;
resource = [|9, 9, 9, 9|1, 1, 1, 1|9, 9, 9, 9|7, 7, 7, 7|6, 6, 6, 6|3, 3, 3, 3|1, 1, 1, 1|9, 9, 9, 9|9, 9, 9, 9|7, 7, 7, 7|] ;
capacities = [10, 10, 10, 10] ;
